<number of tasks>
70

<cycle time>
410

<task times>
1 17
2 66
3 54
4 52
5 6
6 88
7 21
8 128
9 68
10 70
11 85
12 21
13 134
14 135
15 94
16 90
17 50
18 143
19 19
20 54
21 50
22 40
23 73
24 12
25 152
26 42
27 45
28 74
29 26
30 11
31 31
32 50
33 102
34 46
35 35
36 40
37 2
38 1
39 3
40 13
41 16
42 25
43 21
44 43
45 30
46 83
47 89
48 56
49 59
50 43
51 11
52 26
53 44
54 121
55 38
56 68
57 22
58 7
59 16
60 32
61 25
62 27
63 156
64 28
65 15
66 26
67 18
68 72
69 23
70 27

<precedence relations>
1,2
1,41
1,69
1,70
2,3
3,4
3,68
4,6
4,7
5,6
5,24
5,30
6,8
7,8
8,12
9,10
10,11
11,12
12,13
12,14
13,23
14,23
15,16
16,17
16,18
17,19
18,19
19,20
19,22
19,57
20,21
21,23
22,23
23,25
23,31
23,33
24,25
25,26
25,27
25,28
25,29
26,35
27,35
28,35
29,35
30,31
31,32
32,35
33,34
34,35
35,36
35,44
35,48
35,51
35,53
35,56
35,60
35,61
35,62
36,37
37,38
38,39
39,40
40,42
41,42
42,43
43,50
44,45
45,46
46,47
47,50
48,49
49,50
51,52
52,54
53,54
54,55
57,58
58,59
59,60
61,65
62,63
63,64
64,65
64,66
64,67

<setup times forward>
1,10:4
1,11:2
1,16:4
1,17:2
1,18:2
1,19:2
1,20:2
1,21:1
1,22:1
1,41:4
1,57:2
1,58:2
1,59:1
1,69:5
1,70:1
2,10:4
2,11:2
2,16:4
2,17:2
2,18:2
2,19:2
2,20:2
2,21:1
2,22:1
2,41:4
2,57:2
2,58:2
2,59:1
2,69:5
2,70:1
3,10:4
3,11:2
3,16:4
3,17:2
3,18:2
3,19:2
3,20:2
3,21:1
3,22:1
3,41:4
3,57:2
3,58:2
3,59:1
3,68:1
3,69:5
3,70:1
4,6:4
4,10:4
4,11:2
4,16:4
4,17:2
4,18:2
4,19:2
4,20:2
4,21:1
4,22:1
4,41:4
4,57:2
4,58:2
4,59:1
4,68:1
4,69:5
4,70:1
5,6:4
5,10:4
5,11:2
5,16:4
5,17:2
5,18:2
5,19:2
5,20:2
5,21:1
5,22:1
5,41:4
5,57:2
5,58:2
5,59:1
5,68:1
5,69:5
5,70:1
6,7:4
6,9:4
6,11:6
6,15:4
6,17:6
6,18:6
6,19:6
6,20:6
6,21:3
6,22:3
6,24:4
6,30:4
6,57:6
6,58:6
6,59:3
6,68:5
6,69:9
6,70:3
7,6:4
7,8:4
7,10:4
7,11:2
7,16:4
7,17:2
7,18:2
7,19:2
7,20:2
7,21:1
7,22:1
7,41:4
7,57:2
7,58:2
7,59:1
7,68:1
7,69:5
7,70:1
8,9:4
8,11:6
8,12:6
8,15:4
8,17:6
8,18:6
8,19:6
8,20:6
8,21:3
8,22:3
8,24:4
8,30:4
8,57:6
8,58:6
8,59:3
8,68:5
8,69:9
8,70:3
9,6:4
9,8:4
9,10:4
9,16:4
9,17:2
9,18:2
9,19:2
9,20:2
9,21:1
9,22:1
9,41:4
9,57:2
9,58:2
9,59:1
9,68:1
9,69:5
9,70:1
10,1:4
10,2:4
10,3:4
10,4:4
10,5:4
10,7:4
10,11:6
10,15:4
10,17:6
10,18:6
10,19:6
10,20:6
10,21:3
10,22:3
10,24:4
10,30:4
10,57:6
10,58:6
10,59:3
10,68:5
10,69:9
10,70:3
11,1:2
11,2:2
11,3:2
11,4:2
11,5:2
11,6:6
11,7:2
11,8:6
11,15:2
11,16:6
11,21:3
11,22:3
11,24:2
11,30:2
11,41:6
11,59:3
11,68:1
11,69:3
11,70:3
12,13:3
12,14:3
12,15:2
12,16:6
12,21:3
12,22:3
12,24:2
12,30:2
12,41:6
12,59:3
12,68:1
12,69:3
12,70:3
13,15:1
13,16:3
13,17:3
13,18:3
13,19:3
13,20:3
13,24:1
13,30:1
13,41:3
13,57:3
13,58:3
13,68:2
13,69:6
14,15:1
14,16:3
14,17:3
14,18:3
14,19:3
14,20:3
14,24:1
14,30:1
14,41:3
14,57:3
14,58:3
14,68:2
14,69:6
15,6:4
15,8:4
15,10:4
15,11:2
15,12:2
15,13:1
15,14:1
15,16:4
15,41:4
15,68:1
15,69:5
15,70:1
16,1:4
16,2:4
16,3:4
16,4:4
16,5:4
16,7:4
16,9:4
16,11:6
16,12:6
16,13:3
16,14:3
16,17:6
16,18:6
16,24:4
16,30:4
16,68:5
16,69:9
16,70:3
17,1:2
17,2:2
17,3:2
17,4:2
17,5:2
17,6:6
17,7:2
17,8:6
17,9:2
17,10:6
17,13:3
17,14:3
17,24:2
17,30:2
17,41:6
17,68:1
17,69:3
17,70:3
18,1:2
18,2:2
18,3:2
18,4:2
18,5:2
18,6:6
18,7:2
18,8:6
18,9:2
18,10:6
18,13:3
18,14:3
18,24:2
18,30:2
18,41:6
18,68:1
18,69:3
18,70:3
19,1:2
19,2:2
19,3:2
19,4:2
19,5:2
19,6:6
19,7:2
19,8:6
19,9:2
19,10:6
19,13:3
19,14:3
19,22:3
19,24:2
19,30:2
19,41:6
19,68:1
19,69:3
19,70:3
20,1:2
20,2:2
20,3:2
20,4:2
20,5:2
20,6:6
20,7:2
20,8:6
20,9:2
20,10:6
20,13:3
20,14:3
20,21:3
20,22:3
20,24:2
20,30:2
20,41:6
20,59:3
20,68:1
20,69:3
20,70:3
21,1:1
21,2:1
21,3:1
21,4:1
21,5:1
21,6:3
21,7:1
21,8:3
21,9:1
21,10:3
21,11:3
21,12:3
21,24:1
21,30:1
21,41:3
21,57:3
21,58:3
21,68:2
21,69:6
22,1:1
22,2:1
22,3:1
22,4:1
22,5:1
22,6:3
22,7:1
22,8:3
22,9:1
22,10:3
22,11:3
22,12:3
22,20:3
22,24:1
22,30:1
22,41:3
22,57:3
22,58:3
22,68:2
22,69:6
23,24:1
23,30:1
23,41:3
23,57:3
23,58:3
23,68:2
23,69:6
24,6:4
24,8:4
24,10:4
24,11:2
24,12:2
24,13:1
24,14:1
24,16:4
24,17:2
24,18:2
24,19:2
24,20:2
24,21:1
24,22:1
24,23:1
24,25:1
24,31:1
24,32:1
24,33:1
24,34:3
24,41:4
24,57:2
24,58:2
24,59:1
24,68:1
24,69:5
24,70:1
25,26:4
25,27:4
25,28:4
25,29:4
25,30:1
25,34:4
25,41:3
25,57:3
25,58:3
25,68:2
25,69:6
26,30:3
26,31:4
26,32:4
26,33:4
26,41:7
26,57:1
26,58:1
26,59:4
26,68:2
26,69:2
26,70:4
27,30:3
27,31:4
27,32:4
27,33:4
27,41:7
27,57:1
27,58:1
27,59:4
27,68:2
27,69:2
27,70:4
28,30:3
28,31:4
28,32:4
28,33:4
28,41:7
28,57:1
28,58:1
28,59:4
28,68:2
28,69:2
28,70:4
29,30:3
29,31:4
29,32:4
29,33:4
29,41:7
29,57:1
29,58:1
29,59:4
29,68:2
29,69:2
29,70:4
30,6:4
30,8:4
30,10:4
30,11:2
30,12:2
30,13:1
30,14:1
30,16:4
30,17:2
30,18:2
30,19:2
30,20:2
30,21:1
30,22:1
30,23:1
30,25:1
30,26:3
30,27:3
30,28:3
30,29:3
30,31:1
30,33:1
30,34:3
30,41:4
30,57:2
30,58:2
30,59:1
30,68:1
30,69:5
30,70:1
31,24:1
31,26:4
31,27:4
31,28:4
31,29:4
31,34:4
31,41:3
31,57:3
31,58:3
31,68:2
31,69:6
32,24:1
32,26:4
32,27:4
32,28:4
32,29:4
32,34:4
32,35:4
32,41:3
32,57:3
32,58:3
32,68:2
32,69:6
33,24:1
33,26:4
33,27:4
33,28:4
33,29:4
33,30:1
33,34:4
33,41:3
33,57:3
33,58:3
33,68:2
33,69:6
34,24:3
34,25:4
34,30:3
34,31:4
34,32:4
34,41:7
34,57:1
34,58:1
34,59:4
34,68:2
34,69:2
34,70:4
35,36:2
35,41:7
35,48:2
35,53:2
35,56:2
35,57:1
35,58:1
35,59:4
35,60:2
35,61:2
35,68:2
35,69:2
35,70:4
36,41:5
36,44:2
36,45:2
36,47:3
36,49:4
36,51:2
36,52:2
36,53:4
36,54:3
36,55:3
36,56:4
36,57:1
36,58:1
36,59:2
36,60:4
36,61:4
36,62:2
36,64:3
36,65:3
36,66:3
36,67:3
36,69:4
36,70:2
37,41:5
37,44:2
37,45:2
37,47:3
37,49:4
37,51:2
37,52:2
37,53:4
37,54:3
37,55:3
37,56:4
37,57:1
37,58:1
37,59:2
37,60:4
37,61:4
37,62:2
37,64:3
37,65:3
37,66:3
37,67:3
37,69:4
37,70:2
38,39:4
38,41:5
38,44:2
38,45:2
38,47:3
38,49:4
38,51:2
38,52:2
38,53:4
38,54:3
38,55:3
38,56:4
38,57:1
38,58:1
38,59:2
38,60:4
38,61:4
38,62:2
38,64:3
38,65:3
38,66:3
38,67:3
38,69:4
38,70:2
39,41:9
39,44:2
39,45:2
39,46:4
39,47:7
39,48:4
39,51:2
39,52:2
39,54:7
39,55:7
39,57:3
39,58:3
39,59:6
39,62:2
39,63:4
39,64:7
39,65:7
39,66:7
39,67:7
39,68:4
39,70:6
40,41:9
40,44:2
40,45:2
40,46:4
40,47:7
40,48:4
40,51:2
40,52:2
40,54:7
40,55:7
40,57:3
40,58:3
40,59:6
40,62:2
40,63:4
40,64:7
40,65:7
40,66:7
40,67:7
40,68:4
40,70:6
41,2:4
41,3:4
41,4:4
41,5:4
41,7:4
41,9:4
41,11:6
41,12:6
41,13:3
41,14:3
41,15:4
41,17:6
41,18:6
41,19:6
41,20:6
41,21:3
41,22:3
41,23:3
41,24:4
41,25:3
41,26:7
41,27:7
41,28:7
41,29:7
41,30:4
41,31:3
41,32:3
41,33:3
41,34:7
41,35:7
41,36:5
41,37:5
41,38:5
41,39:9
41,40:9
41,42:9
41,44:7
41,45:7
41,46:5
41,47:2
41,48:5
41,49:9
41,51:7
41,52:7
41,53:9
41,54:2
41,55:2
41,56:9
41,57:6
41,58:6
41,59:3
41,60:9
41,61:9
41,62:7
41,63:5
41,64:2
41,65:2
41,66:2
41,67:2
41,68:5
41,69:9
41,70:3
42,43:7
42,44:2
42,45:2
42,46:4
42,47:7
42,48:4
42,51:2
42,52:2
42,54:7
42,55:7
42,57:3
42,58:3
42,59:6
42,62:2
42,63:4
42,64:7
42,65:7
42,66:7
42,67:7
42,68:4
42,70:6
43,44:5
43,45:5
43,46:3
43,48:3
43,49:7
43,51:5
43,52:5
43,53:7
43,56:7
43,57:4
43,58:4
43,59:1
43,60:7
43,61:7
43,62:5
43,63:3
43,68:3
43,69:7
43,70:1
44,36:2
44,37:2
44,38:2
44,39:2
44,40:2
44,41:7
44,42:2
44,43:5
44,48:2
44,49:2
44,53:2
44,54:5
44,55:5
44,56:2
44,57:1
44,58:1
44,59:4
44,60:2
44,61:2
44,63:2
44,64:5
44,65:5
44,66:5
44,67:5
44,68:2
44,69:2
44,70:4
45,36:2
45,37:2
45,38:2
45,39:2
45,40:2
45,41:7
45,42:2
45,43:5
45,46:2
45,48:2
45,49:2
45,53:2
45,54:5
45,55:5
45,56:2
45,57:1
45,58:1
45,59:4
45,60:2
45,61:2
45,63:2
45,64:5
45,65:5
45,66:5
45,67:5
45,68:2
45,69:2
45,70:4
46,39:4
46,40:4
46,41:5
46,42:4
46,43:3
46,47:3
46,49:4
46,51:2
46,52:2
46,53:4
46,54:3
46,55:3
46,56:4
46,57:1
46,58:1
46,59:2
46,60:4
46,61:4
46,62:2
46,64:3
46,65:3
46,66:3
46,67:3
46,69:4
46,70:2
47,36:3
47,37:3
47,38:3
47,39:7
47,40:7
47,41:2
47,42:7
47,48:3
47,49:7
47,51:5
47,52:5
47,53:7
47,56:7
47,57:4
47,58:4
47,59:1
47,60:7
47,61:7
47,62:5
47,63:3
47,68:3
47,69:7
47,70:1
48,39:4
48,40:4
48,41:5
48,42:4
48,43:3
48,44:2
48,45:2
48,47:3
48,49:4
48,51:2
48,52:2
48,53:4
48,54:3
48,55:3
48,56:4
48,57:1
48,58:1
48,59:2
48,60:4
48,61:4
48,62:2
48,64:3
48,65:3
48,66:3
48,67:3
48,69:4
48,70:2
49,36:4
49,37:4
49,38:4
49,41:9
49,43:7
49,44:2
49,45:2
49,46:4
49,47:7
49,50:7
49,51:2
49,52:2
49,54:7
49,55:7
49,57:3
49,58:3
49,59:6
49,62:2
49,63:4
49,64:7
49,65:7
49,66:7
49,67:7
49,68:4
49,70:6
50,51:5
50,52:5
50,53:7
50,56:7
50,57:4
50,58:4
50,59:1
50,60:7
50,61:7
50,62:5
50,63:3
50,68:3
50,69:7
50,70:1
51,36:2
51,37:2
51,38:2
51,39:2
51,40:2
51,41:7
51,42:2
51,43:5
51,46:2
51,47:5
51,48:2
51,49:2
51,50:5
51,53:2
51,56:2
51,57:1
51,58:1
51,59:4
51,60:2
51,61:2
51,63:2
51,64:5
51,65:5
51,66:5
51,67:5
51,68:2
51,69:2
51,70:4
52,36:2
52,37:2
52,38:2
52,39:2
52,40:2
52,41:7
52,42:2
52,43:5
52,46:2
52,47:5
52,48:2
52,49:2
52,50:5
52,53:2
52,54:5
52,56:2
52,57:1
52,58:1
52,59:4
52,60:2
52,61:2
52,63:2
52,64:5
52,65:5
52,66:5
52,67:5
52,68:2
52,69:2
52,70:4
53,36:4
53,37:4
53,38:4
53,41:9
53,43:7
53,44:2
53,45:2
53,46:4
53,47:7
53,48:4
53,50:7
53,51:2
53,52:2
53,54:7
53,57:3
53,58:3
53,59:6
53,62:2
53,63:4
53,64:7
53,65:7
53,66:7
53,67:7
53,68:4
53,70:6
54,36:3
54,37:3
54,38:3
54,39:7
54,40:7
54,41:2
54,42:7
54,44:5
54,45:5
54,46:3
54,48:3
54,49:7
54,56:7
54,57:4
54,58:4
54,59:1
54,60:7
54,61:7
54,62:5
54,63:3
54,68:3
54,69:7
54,70:1
55,36:3
55,37:3
55,38:3
55,39:7
55,40:7
55,41:2
55,42:7
55,44:5
55,45:5
55,46:3
55,48:3
55,49:7
55,56:7
55,57:4
55,58:4
55,59:1
55,60:7
55,61:7
55,62:5
55,63:3
55,68:3
55,69:7
55,70:1
56,36:4
56,37:4
56,38:4
56,41:9
56,43:7
56,44:2
56,45:2
56,46:4
56,47:7
56,48:4
56,50:7
56,51:2
56,52:2
56,54:7
56,55:7
56,57:3
56,58:3
56,59:6
56,62:2
56,63:4
56,64:7
56,65:7
56,66:7
56,67:7
56,68:4
56,70:6
57,1:2
57,2:2
57,3:2
57,4:2
57,5:2
57,6:6
57,7:2
57,8:6
57,9:2
57,10:6
57,13:3
57,14:3
57,21:3
57,22:3
57,23:3
57,24:2
57,25:3
57,26:1
57,27:1
57,28:1
57,29:1
57,30:2
57,31:3
57,32:3
57,33:3
57,34:1
57,35:1
57,36:1
57,37:1
57,38:1
57,39:3
57,40:3
57,41:6
57,42:3
57,43:4
57,44:1
57,45:1
57,46:1
57,47:4
57,48:1
57,49:3
57,50:4
57,51:1
57,52:1
57,53:3
57,54:4
57,55:4
57,56:3
57,61:3
57,62:1
57,63:1
57,64:4
57,65:4
57,66:4
57,67:4
57,68:1
57,69:3
57,70:3
58,1:2
58,2:2
58,3:2
58,4:2
58,5:2
58,6:6
58,7:2
58,8:6
58,9:2
58,10:6
58,13:3
58,14:3
58,21:3
58,22:3
58,23:3
58,24:2
58,25:3
58,26:1
58,27:1
58,28:1
58,29:1
58,30:2
58,31:3
58,32:3
58,33:3
58,34:1
58,35:1
58,36:1
58,37:1
58,38:1
58,39:3
58,40:3
58,41:6
58,42:3
58,43:4
58,44:1
58,45:1
58,46:1
58,47:4
58,48:1
58,49:3
58,50:4
58,51:1
58,52:1
58,53:3
58,54:4
58,55:4
58,56:3
58,59:3
58,61:3
58,62:1
58,63:1
58,64:4
58,65:4
58,66:4
58,67:4
58,68:1
58,69:3
58,70:3
59,1:1
59,2:1
59,3:1
59,4:1
59,5:1
59,6:3
59,7:1
59,8:3
59,9:1
59,10:3
59,11:3
59,12:3
59,20:3
59,24:1
59,26:4
59,27:4
59,28:4
59,29:4
59,30:1
59,34:4
59,35:4
59,36:2
59,37:2
59,38:2
59,39:6
59,40:6
59,41:3
59,42:6
59,43:1
59,44:4
59,45:4
59,46:2
59,47:1
59,48:2
59,49:6
59,50:1
59,51:4
59,52:4
59,53:6
59,54:1
59,55:1
59,56:6
59,60:6
59,61:6
59,62:4
59,63:2
59,64:1
59,65:1
59,66:1
59,67:1
59,68:2
59,69:6
60,36:4
60,37:4
60,38:4
60,41:9
60,43:7
60,44:2
60,45:2
60,46:4
60,47:7
60,48:4
60,50:7
60,51:2
60,52:2
60,54:7
60,55:7
60,62:2
60,63:4
60,64:7
60,65:7
60,66:7
60,67:7
60,68:4
60,70:6
61,36:4
61,37:4
61,38:4
61,41:9
61,43:7
61,44:2
61,45:2
61,46:4
61,47:7
61,48:4
61,50:7
61,51:2
61,52:2
61,54:7
61,55:7
61,57:3
61,58:3
61,59:6
61,62:2
61,63:4
61,64:7
61,65:7
61,66:7
61,67:7
61,68:4
61,70:6
62,36:2
62,37:2
62,38:2
62,39:2
62,40:2
62,41:7
62,42:2
62,43:5
62,46:2
62,47:5
62,48:2
62,49:2
62,50:5
62,53:2
62,54:5
62,55:5
62,56:2
62,57:1
62,58:1
62,59:4
62,60:2
62,61:2
62,63:2
62,68:2
62,69:2
62,70:4
63,39:4
63,40:4
63,41:5
63,42:4
63,43:3
63,44:2
63,45:2
63,47:3
63,49:4
63,50:3
63,51:2
63,52:2
63,53:4
63,54:3
63,55:3
63,56:4
63,57:1
63,58:1
63,59:2
63,60:4
63,61:4
63,64:3
63,69:4
63,70:2
64,36:3
64,37:3
64,38:3
64,39:7
64,40:7
64,41:2
64,42:7
64,44:5
64,45:5
64,46:3
64,48:3
64,49:7
64,51:5
64,52:5
64,53:7
64,56:7
64,57:4
64,58:4
64,59:1
64,60:7
64,61:7
64,68:3
64,69:7
64,70:1
65,36:3
65,37:3
65,38:3
65,39:7
65,40:7
65,41:2
65,42:7
65,44:5
65,45:5
65,46:3
65,48:3
65,49:7
65,51:5
65,52:5
65,53:7
65,56:7
65,57:4
65,58:4
65,59:1
65,60:7
65,68:3
65,69:7
65,70:1
66,36:3
66,37:3
66,38:3
66,39:7
66,40:7
66,41:2
66,42:7
66,44:5
66,45:5
66,46:3
66,48:3
66,49:7
66,51:5
66,52:5
66,53:7
66,56:7
66,57:4
66,58:4
66,59:1
66,60:7
66,61:7
66,68:3
66,69:7
66,70:1
67,36:3
67,37:3
67,38:3
67,39:7
67,40:7
67,41:2
67,42:7
67,44:5
67,45:5
67,46:3
67,48:3
67,49:7
67,51:5
67,52:5
67,53:7
67,56:7
67,57:4
67,58:4
67,59:1
67,60:7
67,61:7
67,68:3
67,69:7
67,70:1
68,4:1
68,5:1
68,6:5
68,7:1
68,8:5
68,9:1
68,10:5
68,11:1
68,12:1
68,13:2
68,14:2
68,15:1
68,16:5
68,17:1
68,18:1
68,19:1
68,20:1
68,21:2
68,22:2
68,23:2
68,24:1
68,25:2
68,26:2
68,27:2
68,28:2
68,29:2
68,30:1
68,31:2
68,32:2
68,33:2
68,34:2
68,35:2
68,39:4
68,40:4
68,41:5
68,42:4
68,43:3
68,44:2
68,45:2
68,47:3
68,49:4
68,50:3
68,51:2
68,52:2
68,53:4
68,54:3
68,55:3
68,56:4
68,57:1
68,58:1
68,59:2
68,60:4
68,61:4
68,62:2
68,64:3
68,65:3
68,66:3
68,67:3
68,69:4
68,70:2
69,2:5
69,3:5
69,4:5
69,5:5
69,6:9
69,7:5
69,8:9
69,9:5
69,10:9
69,11:3
69,12:3
69,13:6
69,14:6
69,15:5
69,16:9
69,17:3
69,18:3
69,19:3
69,20:3
69,21:6
69,22:6
69,23:6
69,24:5
69,25:6
69,26:2
69,27:2
69,28:2
69,29:2
69,30:5
69,31:6
69,32:6
69,33:6
69,34:2
69,35:2
69,36:4
69,37:4
69,38:4
69,41:9
69,43:7
69,44:2
69,45:2
69,46:4
69,47:7
69,48:4
69,50:7
69,51:2
69,52:2
69,54:7
69,55:7
69,57:3
69,58:3
69,59:6
69,62:2
69,63:4
69,64:7
69,65:7
69,66:7
69,67:7
69,68:4
69,70:6
70,2:1
70,3:1
70,4:1
70,5:1
70,6:3
70,7:1
70,8:3
70,9:1
70,10:3
70,11:3
70,12:3
70,15:1
70,16:3
70,17:3
70,18:3
70,19:3
70,20:3
70,24:1
70,26:4
70,27:4
70,28:4
70,29:4
70,30:1
70,34:4
70,35:4
70,36:2
70,37:2
70,38:2
70,39:6
70,40:6
70,41:3
70,42:6
70,43:1
70,44:4
70,45:4
70,46:2
70,47:1
70,48:2
70,49:6
70,50:1
70,51:4
70,52:4
70,53:6
70,54:1
70,55:1
70,56:6
70,57:3
70,58:3
70,60:6
70,61:6
70,62:4
70,63:2
70,64:1
70,65:1
70,66:1
70,67:1
70,68:2
70,69:6

<setup times backward>
1,11:2
1,17:2
1,18:2
1,19:2
1,20:2
1,57:2
1,58:2
2,11:2
2,17:2
2,18:2
2,19:2
2,20:2
2,57:2
2,58:2
2,69:5
3,11:2
3,17:2
3,18:2
3,19:2
3,20:2
3,57:2
3,58:2
3,69:5
4,11:2
4,17:2
4,18:2
4,19:2
4,20:2
4,57:2
4,58:2
4,68:1
4,69:5
5,11:2
5,17:2
5,18:2
5,19:2
5,20:2
5,57:2
5,58:2
5,68:1
5,69:5
6,1:4
6,2:4
6,3:4
6,4:4
6,5:4
6,7:4
6,9:4
6,11:6
6,15:4
6,17:6
6,18:6
6,19:6
6,20:6
6,21:3
6,22:3
6,24:4
6,30:4
6,57:6
6,58:6
6,59:3
6,68:5
6,69:9
6,70:3
7,11:2
7,17:2
7,18:2
7,19:2
7,20:2
7,57:2
7,58:2
7,68:1
7,69:5
8,1:4
8,2:4
8,3:4
8,4:4
8,5:4
8,7:4
8,9:4
8,11:6
8,15:4
8,17:6
8,18:6
8,19:6
8,20:6
8,21:3
8,22:3
8,24:4
8,30:4
8,57:6
8,58:6
8,59:3
8,68:5
8,69:9
8,70:3
9,17:2
9,18:2
9,19:2
9,20:2
9,57:2
9,58:2
9,68:1
9,69:5
10,1:4
10,2:4
10,3:4
10,4:4
10,5:4
10,7:4
10,9:4
10,15:4
10,17:6
10,18:6
10,19:6
10,20:6
10,21:3
10,22:3
10,24:4
10,30:4
10,57:6
10,58:6
10,59:3
10,68:5
10,69:9
10,70:3
11,69:3
12,69:3
13,1:1
13,2:1
13,3:1
13,4:1
13,5:1
13,7:1
13,9:1
13,11:3
13,12:3
13,15:1
13,17:3
13,18:3
13,19:3
13,20:3
13,24:1
13,30:1
13,57:3
13,58:3
13,68:2
13,69:6
14,1:1
14,2:1
14,3:1
14,4:1
14,5:1
14,7:1
14,9:1
14,11:3
14,12:3
14,15:1
14,17:3
14,18:3
14,19:3
14,20:3
14,24:1
14,30:1
14,57:3
14,58:3
14,68:2
14,69:6
15,11:2
15,12:2
15,68:1
15,69:5
16,1:4
16,2:4
16,3:4
16,4:4
16,5:4
16,7:4
16,9:4
16,11:6
16,12:6
16,13:3
16,14:3
16,15:4
16,24:4
16,30:4
16,68:5
16,69:9
16,70:3
17,69:3
18,69:3
19,69:3
20,69:3
21,1:1
21,2:1
21,3:1
21,4:1
21,5:1
21,7:1
21,9:1
21,11:3
21,12:3
21,15:1
21,17:3
21,18:3
21,19:3
21,20:3
21,24:1
21,30:1
21,57:3
21,58:3
21,68:2
21,69:6
22,1:1
22,2:1
22,3:1
22,4:1
22,5:1
22,7:1
22,9:1
22,11:3
22,12:3
22,15:1
22,17:3
22,18:3
22,19:3
22,20:3
22,24:1
22,30:1
22,57:3
22,58:3
22,68:2
22,69:6
23,1:1
23,2:1
23,3:1
23,4:1
23,5:1
23,7:1
23,9:1
23,11:3
23,12:3
23,15:1
23,17:3
23,18:3
23,19:3
23,20:3
23,24:1
23,30:1
23,57:3
23,58:3
23,68:2
23,69:6
24,11:2
24,12:2
24,17:2
24,18:2
24,19:2
24,20:2
24,34:3
24,57:2
24,58:2
24,68:1
24,69:5
25,1:1
25,2:1
25,3:1
25,4:1
25,5:1
25,7:1
25,9:1
25,11:3
25,12:3
25,15:1
25,17:3
25,18:3
25,19:3
25,20:3
25,24:1
25,30:1
25,34:4
25,57:3
25,58:3
25,68:2
25,69:6
26,69:2
27,69:2
28,69:2
29,69:2
30,11:2
30,12:2
30,17:2
30,18:2
30,19:2
30,20:2
30,26:3
30,27:3
30,28:3
30,29:3
30,34:3
30,57:2
30,58:2
30,68:1
30,69:5
31,1:1
31,2:1
31,3:1
31,4:1
31,5:1
31,7:1
31,9:1
31,11:3
31,12:3
31,15:1
31,17:3
31,18:3
31,19:3
31,20:3
31,24:1
31,26:4
31,27:4
31,28:4
31,29:4
31,30:1
31,34:4
31,57:3
31,58:3
31,68:2
31,69:6
32,1:1
32,2:1
32,3:1
32,4:1
32,5:1
32,7:1
32,9:1
32,11:3
32,12:3
32,15:1
32,17:3
32,18:3
32,19:3
32,20:3
32,24:1
32,26:4
32,27:4
32,28:4
32,29:4
32,30:1
32,34:4
32,57:3
32,58:3
32,68:2
32,69:6
33,1:1
33,2:1
33,3:1
33,4:1
33,5:1
33,7:1
33,9:1
33,11:3
33,12:3
33,15:1
33,17:3
33,18:3
33,19:3
33,20:3
33,24:1
33,26:4
33,27:4
33,28:4
33,29:4
33,30:1
33,57:3
33,58:3
33,68:2
33,69:6
34,69:2
35,69:2
36,11:1
36,12:1
36,17:1
36,18:1
36,19:1
36,20:1
36,26:2
36,27:2
36,28:2
36,29:2
36,34:2
36,35:2
36,44:2
36,45:2
36,49:4
36,51:2
36,52:2
36,53:4
36,56:4
36,57:1
36,58:1
36,60:4
36,61:4
36,62:2
36,69:4
37,11:1
37,12:1
37,17:1
37,18:1
37,19:1
37,20:1
37,26:2
37,27:2
37,28:2
37,29:2
37,34:2
37,35:2
37,44:2
37,45:2
37,49:4
37,51:2
37,52:2
37,53:4
37,56:4
37,57:1
37,58:1
37,60:4
37,61:4
37,62:2
37,69:4
38,11:1
38,12:1
38,17:1
38,18:1
38,19:1
38,20:1
38,26:2
38,27:2
38,28:2
38,29:2
38,34:2
38,35:2
38,44:2
38,45:2
38,49:4
38,51:2
38,52:2
38,53:4
38,56:4
38,57:1
38,58:1
38,60:4
38,61:4
38,62:2
38,69:4
41,1:4
41,2:4
41,3:4
41,4:4
41,5:4
41,7:4
41,9:4
41,11:6
41,12:6
41,13:3
41,14:3
41,15:4
41,17:6
41,18:6
41,19:6
41,20:6
41,21:3
41,22:3
41,23:3
41,24:4
41,25:3
41,26:7
41,27:7
41,28:7
41,29:7
41,30:4
41,31:3
41,32:3
41,33:3
41,34:7
41,35:7
41,36:5
41,37:5
41,38:5
41,39:9
41,40:9
41,44:7
41,45:7
41,46:5
41,47:2
41,48:5
41,49:9
41,51:7
41,52:7
41,53:9
41,54:2
41,55:2
41,56:9
41,57:6
41,58:6
41,59:3
41,60:9
41,61:9
41,62:7
41,63:5
41,64:2
41,65:2
41,66:2
41,67:2
41,68:5
41,69:9
41,70:3
43,1:2
43,2:2
43,3:2
43,4:2
43,5:2
43,7:2
43,9:2
43,11:4
43,12:4
43,13:1
43,14:1
43,15:2
43,17:4
43,18:4
43,19:4
43,20:4
43,21:1
43,22:1
43,23:1
43,24:2
43,25:1
43,26:5
43,27:5
43,28:5
43,29:5
43,30:2
43,31:1
43,32:1
43,33:1
43,34:5
43,35:5
43,36:3
43,37:3
43,38:3
43,39:7
43,40:7
43,42:7
43,44:5
43,45:5
43,46:3
43,48:3
43,49:7
43,51:5
43,52:5
43,53:7
43,56:7
43,57:4
43,58:4
43,59:1
43,60:7
43,61:7
43,62:5
43,63:3
43,68:3
43,69:7
43,70:1
44,39:2
44,40:2
44,42:2
44,49:2
44,53:2
44,56:2
44,60:2
44,61:2
44,69:2
45,39:2
45,40:2
45,42:2
45,49:2
45,53:2
45,56:2
45,60:2
45,61:2
45,69:2
46,11:1
46,12:1
46,17:1
46,18:1
46,19:1
46,20:1
46,26:2
46,27:2
46,28:2
46,29:2
46,34:2
46,35:2
46,39:4
46,40:4
46,42:4
46,44:2
46,45:2
46,49:4
46,51:2
46,52:2
46,53:4
46,56:4
46,57:1
46,58:1
46,60:4
46,61:4
46,62:2
46,69:4
47,1:2
47,2:2
47,3:2
47,4:2
47,5:2
47,7:2
47,9:2
47,11:4
47,12:4
47,13:1
47,14:1
47,15:2
47,17:4
47,18:4
47,19:4
47,20:4
47,21:1
47,22:1
47,23:1
47,24:2
47,25:1
47,26:5
47,27:5
47,28:5
47,29:5
47,30:2
47,31:1
47,32:1
47,33:1
47,34:5
47,35:5
47,36:3
47,37:3
47,38:3
47,39:7
47,40:7
47,42:7
47,44:5
47,45:5
47,46:3
47,48:3
47,49:7
47,51:5
47,52:5
47,53:7
47,56:7
47,57:4
47,58:4
47,59:1
47,60:7
47,61:7
47,62:5
47,63:3
47,68:3
47,69:7
47,70:1
48,11:1
48,12:1
48,17:1
48,18:1
48,19:1
48,20:1
48,26:2
48,27:2
48,28:2
48,29:2
48,34:2
48,35:2
48,39:4
48,40:4
48,42:4
48,44:2
48,45:2
48,51:2
48,52:2
48,53:4
48,56:4
48,57:1
48,58:1
48,60:4
48,61:4
48,62:2
48,69:4
50,1:2
50,2:2
50,3:2
50,4:2
50,5:2
50,7:2
50,9:2
50,11:4
50,12:4
50,13:1
50,14:1
50,15:2
50,17:4
50,18:4
50,19:4
50,20:4
50,21:1
50,22:1
50,23:1
50,24:2
50,25:1
50,26:5
50,27:5
50,28:5
50,29:5
50,30:2
50,31:1
50,32:1
50,33:1
50,34:5
50,35:5
50,36:3
50,37:3
50,38:3
50,39:7
50,40:7
50,42:7
50,44:5
50,45:5
50,46:3
50,48:3
50,49:7
50,51:5
50,52:5
50,53:7
50,56:7
50,57:4
50,58:4
50,59:1
50,60:7
50,61:7
50,62:5
50,63:3
50,68:3
50,69:7
50,70:1
51,39:2
51,40:2
51,42:2
51,49:2
51,53:2
51,56:2
51,60:2
51,61:2
51,69:2
52,39:2
52,40:2
52,42:2
52,49:2
52,53:2
52,56:2
52,60:2
52,61:2
52,69:2
54,1:2
54,2:2
54,3:2
54,4:2
54,5:2
54,7:2
54,9:2
54,11:4
54,12:4
54,13:1
54,14:1
54,15:2
54,17:4
54,18:4
54,19:4
54,20:4
54,21:1
54,22:1
54,23:1
54,24:2
54,25:1
54,26:5
54,27:5
54,28:5
54,29:5
54,30:2
54,31:1
54,32:1
54,33:1
54,34:5
54,35:5
54,36:3
54,37:3
54,38:3
54,39:7
54,40:7
54,42:7
54,44:5
54,45:5
54,46:3
54,48:3
54,49:7
54,51:5
54,52:5
54,53:7
54,56:7
54,57:4
54,58:4
54,59:1
54,60:7
54,61:7
54,62:5
54,63:3
54,68:3
54,69:7
54,70:1
55,1:2
55,2:2
55,3:2
55,4:2
55,5:2
55,7:2
55,9:2
55,11:4
55,12:4
55,13:1
55,14:1
55,15:2
55,17:4
55,18:4
55,19:4
55,20:4
55,21:1
55,22:1
55,23:1
55,24:2
55,25:1
55,26:5
55,27:5
55,28:5
55,29:5
55,30:2
55,31:1
55,32:1
55,33:1
55,34:5
55,35:5
55,36:3
55,37:3
55,38:3
55,39:7
55,40:7
55,42:7
55,44:5
55,45:5
55,46:3
55,48:3
55,49:7
55,51:5
55,52:5
55,53:7
55,56:7
55,57:4
55,58:4
55,59:1
55,60:7
55,61:7
55,62:5
55,63:3
55,68:3
55,69:7
55,70:1
57,26:1
57,27:1
57,28:1
57,29:1
57,34:1
57,35:1
57,39:3
57,40:3
57,42:3
57,44:1
57,45:1
57,49:3
57,51:1
57,52:1
57,53:3
57,56:3
57,61:3
57,62:1
57,69:3
58,26:1
58,27:1
58,28:1
58,29:1
58,34:1
58,35:1
58,39:3
58,40:3
58,42:3
58,44:1
58,45:1
58,49:3
58,51:1
58,52:1
58,53:3
58,56:3
58,61:3
58,62:1
58,69:3
59,1:1
59,2:1
59,3:1
59,4:1
59,5:1
59,7:1
59,9:1
59,11:3
59,12:3
59,15:1
59,17:3
59,18:3
59,19:3
59,20:3
59,24:1
59,26:4
59,27:4
59,28:4
59,29:4
59,30:1
59,34:4
59,35:4
59,36:2
59,37:2
59,38:2
59,39:6
59,40:6
59,42:6
59,44:4
59,45:4
59,46:2
59,48:2
59,49:6
59,51:4
59,52:4
59,53:6
59,56:6
59,57:3
59,58:3
59,61:6
59,62:4
59,63:2
59,68:2
59,69:6
62,39:2
62,40:2
62,42:2
62,49:2
62,53:2
62,56:2
62,60:2
62,61:2
62,69:2
63,11:1
63,12:1
63,17:1
63,18:1
63,19:1
63,20:1
63,26:2
63,27:2
63,28:2
63,29:2
63,34:2
63,35:2
63,39:4
63,40:4
63,42:4
63,44:2
63,45:2
63,49:4
63,51:2
63,52:2
63,53:4
63,56:4
63,57:1
63,58:1
63,60:4
63,61:4
63,62:2
63,69:4
64,1:2
64,2:2
64,3:2
64,4:2
64,5:2
64,7:2
64,9:2
64,11:4
64,12:4
64,13:1
64,14:1
64,15:2
64,17:4
64,18:4
64,19:4
64,20:4
64,21:1
64,22:1
64,23:1
64,24:2
64,25:1
64,26:5
64,27:5
64,28:5
64,29:5
64,30:2
64,31:1
64,32:1
64,33:1
64,34:5
64,35:5
64,36:3
64,37:3
64,38:3
64,39:7
64,40:7
64,42:7
64,44:5
64,45:5
64,46:3
64,48:3
64,49:7
64,51:5
64,52:5
64,53:7
64,56:7
64,57:4
64,58:4
64,59:1
64,60:7
64,61:7
64,62:5
64,63:3
64,68:3
64,69:7
64,70:1
65,1:2
65,2:2
65,3:2
65,4:2
65,5:2
65,7:2
65,9:2
65,11:4
65,12:4
65,13:1
65,14:1
65,15:2
65,17:4
65,18:4
65,19:4
65,20:4
65,21:1
65,22:1
65,23:1
65,24:2
65,25:1
65,26:5
65,27:5
65,28:5
65,29:5
65,30:2
65,31:1
65,32:1
65,33:1
65,34:5
65,35:5
65,36:3
65,37:3
65,38:3
65,39:7
65,40:7
65,42:7
65,44:5
65,45:5
65,46:3
65,48:3
65,49:7
65,51:5
65,52:5
65,53:7
65,56:7
65,57:4
65,58:4
65,59:1
65,60:7
65,61:7
65,62:5
65,63:3
65,68:3
65,69:7
65,70:1
66,1:2
66,2:2
66,3:2
66,4:2
66,5:2
66,7:2
66,9:2
66,11:4
66,12:4
66,13:1
66,14:1
66,15:2
66,17:4
66,18:4
66,19:4
66,20:4
66,21:1
66,22:1
66,23:1
66,24:2
66,25:1
66,26:5
66,27:5
66,28:5
66,29:5
66,30:2
66,31:1
66,32:1
66,33:1
66,34:5
66,35:5
66,36:3
66,37:3
66,38:3
66,39:7
66,40:7
66,42:7
66,44:5
66,45:5
66,46:3
66,48:3
66,49:7
66,51:5
66,52:5
66,53:7
66,56:7
66,57:4
66,58:4
66,59:1
66,60:7
66,61:7
66,62:5
66,63:3
66,68:3
66,69:7
66,70:1
67,1:2
67,2:2
67,3:2
67,4:2
67,5:2
67,7:2
67,9:2
67,11:4
67,12:4
67,13:1
67,14:1
67,15:2
67,17:4
67,18:4
67,19:4
67,20:4
67,21:1
67,22:1
67,23:1
67,24:2
67,25:1
67,26:5
67,27:5
67,28:5
67,29:5
67,30:2
67,31:1
67,32:1
67,33:1
67,34:5
67,35:5
67,36:3
67,37:3
67,38:3
67,39:7
67,40:7
67,42:7
67,44:5
67,45:5
67,46:3
67,48:3
67,49:7
67,51:5
67,52:5
67,53:7
67,56:7
67,57:4
67,58:4
67,59:1
67,60:7
67,61:7
67,62:5
67,63:3
67,68:3
67,69:7
67,70:1
68,11:1
68,12:1
68,17:1
68,18:1
68,19:1
68,20:1
68,26:2
68,27:2
68,28:2
68,29:2
68,34:2
68,35:2
68,39:4
68,40:4
68,42:4
68,44:2
68,45:2
68,49:4
68,51:2
68,52:2
68,53:4
68,56:4
68,57:1
68,58:1
68,60:4
68,61:4
68,62:2
68,69:4
70,1:1
70,2:1
70,3:1
70,4:1
70,5:1
70,7:1
70,9:1
70,11:3
70,12:3
70,15:1
70,17:3
70,18:3
70,19:3
70,20:3
70,24:1
70,26:4
70,27:4
70,28:4
70,29:4
70,30:1
70,34:4
70,35:4
70,36:2
70,37:2
70,38:2
70,39:6
70,40:6
70,42:6
70,44:4
70,45:4
70,46:2
70,48:2
70,49:6
70,51:4
70,52:4
70,53:6
70,56:6
70,57:3
70,58:3
70,60:6
70,61:6
70,62:4
70,63:2
70,68:2
70,69:6

<end>

<optimal SALBP-1 value>
9


<rand seed>
467321153

